657,389
804,575
1081,610
1020,745
789,619
611,503
672,465
657,389
708,353
778,336
733,334
1125,336
1081,610
1020,745
893,618
518,726
200,651
436,887
196,563
570,748
505,648
207,481
311,286
611,503
778,336
935,152
644,169
718,169
653,229
668,380
799,424
713,613
681,826
681,706
830,700
893,618
755,178
727,264
718,169
999,88
1125,336
823,360
778,336
727,264
626,235
342,67
207,481
196,563
